
******************************************************************************
This program contains Ipopt, a library for large-scale nonlinear optimization.
 Ipopt is released as open source code under the Eclipse Public License (EPL).
         For more information visit https://github.com/coin-or/Ipopt
******************************************************************************

This is Ipopt version 3.14.14, running with linear solver MUMPS 5.6.2.

Number of nonzeros in equality constraint Jacobian...:    22816
Number of nonzeros in inequality constraint Jacobian.:      880
Number of nonzeros in Lagrangian Hessian.............:     2640

Total number of variables............................:     7150
                     variables with only lower bounds:     3520
                variables with lower and upper bounds:      110
                     variables with only upper bounds:        0
Total number of equality constraints.................:     7040
Total number of inequality constraints...............:      880
        inequality constraints with only lower bounds:        0
   inequality constraints with lower and upper bounds:        0
        inequality constraints with only upper bounds:      880

iter    objective    inf_pr   inf_du lg(mu)  ||d||  lg(rg) alpha_du alpha_pr  ls
   0  4.0000000e+01 9.90e-01 2.02e+00  -1.0 0.00e+00    -  0.00e+00 0.00e+00   0
   1  2.2126340e+01 6.27e-01 3.50e+02  -1.0 9.90e-01    -  1.10e-02 3.67e-01f  1
   2  2.0993870e+01 6.24e-01 3.49e+02  -1.0 8.29e+00    -  3.37e-02 5.12e-03h  1
   3  1.9604697e+01 6.23e-01 3.48e+02  -1.0 7.65e+01    -  8.92e-03 1.36e-03f  1
   4  1.8721563e+01 5.98e-01 3.38e+02  -1.0 1.46e+00    -  2.92e-01 3.96e-02f  1
   5  1.6863353e+01 5.17e-01 3.05e+02  -1.0 5.98e-01    -  8.00e-01 1.37e-01f  1
   6  1.6851215e+01 5.16e-01 1.87e+03  -1.0 5.20e-01    -  2.62e-02 1.09e-03h  1
   7  1.7178818e+01 5.09e-01 1.64e+03  -1.0 5.81e+00    -  4.64e-04 1.40e-02h  1
   8  1.7195188e+01 5.08e-01 1.62e+03  -1.0 5.02e+00    -  1.88e-03 6.04e-04h  1
   9  1.7499827e+01 5.02e-01 1.90e+03  -1.0 8.96e+00    -  2.07e-03 1.25e-02h  1
iter    objective    inf_pr   inf_du lg(mu)  ||d||  lg(rg) alpha_du alpha_pr  ls
  10  1.7510826e+01 5.02e-01 1.73e+03  -1.0 3.17e+00    -  2.05e-03 3.46e-04h  1
  11  1.8110852e+01 4.91e-01 3.82e+03  -1.0 7.90e+00    -  9.96e-04 2.19e-02h  1
  12  1.8123691e+01 4.91e-01 3.55e+03  -1.0 4.43e+00    -  3.97e-03 3.79e-04h  1
  13  1.8964978e+01 4.78e-01 4.87e+03  -1.0 6.58e+00    -  1.06e-03 2.66e-02h  1
  14  1.9335085e+01 4.72e-01 4.77e+03  -1.0 6.27e+00    -  1.72e-02 1.08e-02h  1
  15  1.9363418e+01 4.72e-01 4.75e+03  -1.0 3.29e+00    -  3.00e-03 6.41e-04h  1
  16  2.2024486e+01 4.40e-01 4.86e+03  -1.0 5.13e+00    -  2.26e-03 6.72e-02h  1
  17  2.2068837e+01 4.40e-01 4.89e+03  -1.0 3.31e+00    -  1.52e-02 9.29e-04h  1
  18  2.4832411e+01 4.16e-01 4.52e+03  -1.0 3.49e+00    -  3.66e-03 5.56e-02f  1
  19  2.6009033e+01 4.06e-01 4.50e+03  -1.0 3.05e+00    -  5.48e-02 2.20e-02f  1
iter    objective    inf_pr   inf_du lg(mu)  ||d||  lg(rg) alpha_du alpha_pr  ls
  20  3.0327645e+01 3.76e-01 4.13e+03  -1.0 2.86e+00    -  5.94e-02 7.53e-02f  1
  21  3.0469508e+01 3.75e-01 4.14e+03  -1.0 1.04e+00    -  1.32e-02 2.52e-03h  1
  22  5.6400676e+01 1.99e-01 1.65e+03  -1.0 1.67e+00    -  7.40e-02 4.69e-01f  1
  23  5.3652300e+01 1.12e-02 6.65e+02  -1.0 4.14e-01    -  3.36e-01 9.44e-01h  1
  24  5.3460655e+01 7.84e-03 4.72e+02  -1.0 1.26e+00    -  2.86e-01 2.97e-01h  1
  25  5.3504203e+01 7.57e-03 4.38e+02  -1.0 7.81e-01    -  1.21e-01 3.46e-02h  1
  26  5.3620357e+01 7.10e-03 7.04e+02  -1.0 7.15e-01    -  8.32e-03 6.13e-02h  1
  27  5.4161446e+01 5.55e-03 6.20e+02  -1.0 1.69e+00    -  1.16e-01 2.18e-01h  1
  28  5.5899705e+01 4.63e-03 4.63e+02  -1.0 1.33e+00    -  2.25e-01 1.66e-01h  1
  29  5.7452664e+01 3.88e-03 1.23e+03  -1.0 1.21e+00    -  3.78e-02 1.61e-01h  1
iter    objective    inf_pr   inf_du lg(mu)  ||d||  lg(rg) alpha_du alpha_pr  ls
  30  5.7703898e+01 3.78e-03 1.55e+03  -1.0 1.05e+00    -  9.42e-02 2.68e-02h  1
  31  5.8657278e+01 3.44e-03 1.41e+03  -1.0 1.56e+00    -  9.16e-02 9.07e-02h  1
  32  5.9145760e+01 3.27e-03 1.34e+03  -1.0 1.38e+00    -  4.80e-02 4.93e-02h  1
  33  5.9811952e+01 3.08e-03 1.26e+03  -1.0 1.25e+00    -  5.03e-02 5.81e-02h  1
  34  6.0645215e+01 2.85e-03 1.17e+03  -1.0 1.12e+00    -  5.32e-02 7.56e-02h  1
  35  6.1501908e+01 2.61e-03 1.07e+03  -1.0 9.56e-01    -  8.27e-02 8.37e-02h  1
  36  6.2296406e+01 2.41e-03 9.86e+02  -1.0 7.81e-01    -  7.06e-02 7.73e-02h  1
  37  6.3087719e+01 2.22e-03 9.11e+02  -1.0 6.46e-01    -  5.98e-02 7.70e-02h  1
  38  6.3898642e+01 2.04e-03 8.37e+02  -1.0 5.79e-01    -  5.84e-02 8.15e-02h  1
  39  6.4726406e+01 1.86e-03 7.64e+02  -1.0 6.68e-01    -  6.02e-02 8.70e-02h  1
iter    objective    inf_pr   inf_du lg(mu)  ||d||  lg(rg) alpha_du alpha_pr  ls
  40  6.5562092e+01 1.69e-03 6.94e+02  -1.0 7.45e-01    -  5.92e-02 9.13e-02h  1
  41  6.6411565e+01 1.53e-03 7.29e+02  -1.0 7.89e-01    -  5.62e-02 9.64e-02h  1
  42  6.7298888e+01 1.37e-03 9.91e+02  -1.0 7.67e-01    -  5.31e-02 1.05e-01h  1
  43  6.8347384e+01 1.19e-03 1.47e+03  -1.0 6.83e-01    -  4.89e-02 1.33e-01h  1
  44  7.0129464e+01 8.74e-04 3.30e+03  -1.0 5.46e-01    -  3.38e-02 2.62e-01h  1
  45  7.1268128e+01 6.56e-04 3.41e+03  -1.0 1.18e+00    -  1.47e-01 2.50e-01h  1
  46  7.2089131e+01 5.11e-04 3.57e+03  -1.0 1.35e+00    -  1.59e-01 2.20e-01h  1
  47  7.2823391e+01 4.78e-04 4.05e+03  -1.0 1.71e+00    -  1.44e-01 2.07e-01h  1
  48  7.3170510e+01 3.80e-04 4.71e+03  -1.0 1.69e+00    -  1.52e-01 2.15e-01h  1
  49  7.3409850e+01 5.58e-04 7.07e+03  -1.0 1.36e+00    -  1.44e-01 2.60e-01h  1
iter    objective    inf_pr   inf_du lg(mu)  ||d||  lg(rg) alpha_du alpha_pr  ls
  50  7.3347698e+01 7.48e-04 8.22e+03  -1.0 1.55e+00    -  1.92e-01 2.65e-01h  1
  51  7.2623273e+01 5.60e-04 1.50e+04  -1.0 8.84e-01    -  2.08e-01 3.83e-01H  1
  52  7.1821238e+01 5.55e-04 1.40e+04  -1.0 1.25e+00    -  2.53e-01 2.90e-01h  1
  53  7.0902635e+01 7.17e-04 1.95e+04  -1.0 9.71e-01    -  2.82e-01 3.64e-01h  1
  54  6.9862348e+01 6.43e-04 2.21e+04  -1.0 9.21e-01    -  3.13e-01 3.61e-01h  1
  55  6.8496194e+01 6.90e-04 4.26e+04  -1.0 8.26e-01    -  3.81e-01 4.83e-01h  1
  56  6.7428553e+01 5.68e-04 1.15e+04  -1.0 6.60e-01    -  4.80e-01 4.16e-01h  1
  57  6.6205715e+01 7.18e-04 1.89e+04  -1.0 6.30e-01    -  5.92e-01 6.17e-01h  1
  58  6.4893873e+01 5.74e-04 1.40e+05  -1.0 3.46e-01    -  9.97e-01 9.24e-01h  1
  59  6.4481147e+01 9.00e-05 6.65e+01  -1.0 1.38e-01    -  1.00e+00 1.00e+00h  1
iter    objective    inf_pr   inf_du lg(mu)  ||d||  lg(rg) alpha_du alpha_pr  ls
  60  6.4320592e+01 9.82e-06 1.63e+06  -3.8 1.28e-01    -  8.08e-01 1.00e+00f  1
  61  6.4078154e+01 1.09e-04 6.84e+05  -3.8 3.68e-01    -  5.79e-01 8.04e-01f  1
  62  6.3792235e+01 5.05e-04 3.85e+05  -3.8 1.07e+00    -  4.37e-01 3.60e-01f  1
  63  6.3625818e+01 4.69e-04 2.82e+05  -3.8 2.71e+00    -  2.68e-01 9.40e-02f  1
  64  6.3405823e+01 4.24e-04 2.50e+05  -3.8 2.21e+00    -  1.13e-01 1.35e-01f  1
  65  6.3116298e+01 4.38e-04 1.91e+05  -3.8 3.07e+00    -  2.36e-01 1.79e-01f  1
  66  6.3075493e+01 4.15e-04 1.73e+05  -3.8 1.77e+00    -  9.49e-02 5.33e-02f  1
  67  6.2812895e+01 1.80e-04 1.60e+05  -3.8 6.18e-01    -  7.46e-02 6.46e-01f  1
  68  6.2693227e+01 1.17e-05 1.46e+05  -3.8 1.03e-01    -  8.45e-02 1.00e+00f  1
  69  6.2583572e+01 5.81e-05 1.41e+05  -3.8 1.09e+00    -  3.55e-02 2.30e-01f  1
iter    objective    inf_pr   inf_du lg(mu)  ||d||  lg(rg) alpha_du alpha_pr  ls
  70  6.2482704e+01 4.39e-05 7.51e+04  -3.8 1.70e-01   0.0 4.68e-01 5.73e-01f  1
  71  6.2459021e+01 4.12e-05 5.36e+04  -3.8 5.10e-01  -0.5 2.86e-01 5.99e-02f  1
  72  6.2429143e+01 3.94e-05 5.19e+04  -3.8 1.92e+00    -  3.13e-02 4.56e-02f  1
  73  6.2395587e+01 3.59e-05 3.54e+04  -3.8 8.23e-01    -  3.18e-01 8.73e-02f  1
  74  6.2325352e+01 4.63e-05 2.71e+04  -3.8 2.93e-01    -  2.35e-01 7.54e-01f  1
  75  6.2292951e+01 2.40e-05 2.51e+04  -3.8 2.68e-01    -  7.31e-02 4.81e-01f  1
  76  6.2256655e+01 3.04e-05 1.81e+04  -3.8 3.83e-01    -  2.79e-01 7.03e-01f  1
  77  6.2249094e+01 3.96e-05 1.62e+04  -3.8 4.20e-01  -1.0 1.07e-01 4.68e-01f  1
  78  6.2249309e+01 3.60e-05 2.15e+01  -3.8 1.57e-01    -  1.00e+00 9.38e-02f  2
  79  6.2246935e+01 2.08e-05 1.35e+01  -3.8 5.47e-02    -  1.00e+00 4.28e-01h  1
iter    objective    inf_pr   inf_du lg(mu)  ||d||  lg(rg) alpha_du alpha_pr  ls
  80  6.2245078e+01 3.26e-08 3.55e-01  -3.8 2.95e-02    -  1.00e+00 1.00e+00f  1
  81  6.2245046e+01 1.24e-10 1.06e-05  -3.8 2.80e-04    -  1.00e+00 1.00e+00h  1
  82  6.2231908e+01 4.27e-07 1.33e+03  -5.7 1.19e-01    -  8.33e-01 7.44e-01f  1
  83  6.2228426e+01 1.01e-07 6.51e+02  -5.7 1.08e-01    -  1.00e+00 8.29e-01f  1
  84  6.2227762e+01 1.06e-08 8.36e-02  -5.7 1.87e-02    -  1.00e+00 1.00e+00f  1
  85  6.2227767e+01 1.05e-09 6.19e-05  -5.7 1.09e-03    -  1.00e+00 1.00e+00h  1
  86  6.2227587e+01 7.71e-10 1.86e+01  -8.6 3.65e-03    -  9.88e-01 8.87e-01f  1
  87  6.2227570e+01 2.50e-10 5.11e+00  -8.6 4.30e-04    -  1.00e+00 7.54e-01f  1
  88  6.2227565e+01 1.04e-11 2.24e-05  -8.6 1.10e-04    -  1.00e+00 1.00e+00f  1
  89  6.2227565e+01 4.02e-16 1.16e-10  -8.6 6.62e-07    -  1.00e+00 1.00e+00h  1

Number of Iterations....: 89

                                   (scaled)                 (unscaled)
Objective...............:   6.2227564833712258e+01    6.2227564833712258e+01
Dual infeasibility......:   1.1641532182693481e-10    1.1641532182693481e-10
Constraint violation....:   4.0158848468863084e-16    4.0158848468863084e-16
Variable bound violation:   7.5903031524326409e-09    7.5903031524326409e-09
Complementarity.........:   2.5082457251346503e-09    2.5082457251346503e-09
Overall NLP error.......:   2.5082457251346503e-09    2.5082457251346503e-09


Number of objective function evaluations             = 92
Number of objective gradient evaluations             = 90
Number of equality constraint evaluations            = 92
Number of inequality constraint evaluations          = 92
Number of equality constraint Jacobian evaluations   = 90
Number of inequality constraint Jacobian evaluations = 90
Number of Lagrangian Hessian evaluations             = 89
Total seconds in IPOPT (w/o function evaluations)    =      8.353
Total seconds in NLP function evaluations            =      0.402


Timing Statistics:

OverallAlgorithm....................:     66.543 (sys:     68.577 wall:      8.755)
 PrintProblemStatistics.............:      0.018 (sys:      0.017 wall:      0.002)
 InitializeIterates.................:      0.518 (sys:      0.394 wall:      0.079)
 UpdateHessian......................:      1.636 (sys:      1.679 wall:      0.214)
 OutputIteration....................:      0.426 (sys:      0.487 wall:      0.063)
 UpdateBarrierParameter.............:      0.039 (sys:      0.041 wall:      0.005)
 ComputeSearchDirection.............:     61.240 (sys:     63.220 wall:      8.044)
 ComputeAcceptableTrialPoint........:      1.484 (sys:      1.532 wall:      0.194)
 AcceptTrialPoint...................:      0.080 (sys:      0.085 wall:      0.011)
 CheckConvergence...................:      1.051 (sys:      1.069 wall:      0.137)
PDSystemSolverTotal.................:     61.253 (sys:     63.208 wall:      8.044)
 PDSystemSolverSolveOnce............:     60.217 (sys:     62.139 wall:      7.907)
 ComputeResiduals...................:      0.807 (sys:      0.848 wall:      0.108)
 StdAugSystemSolverMultiSolve.......:     60.457 (sys:     62.256 wall:      7.950)
 LinearSystemScaling................:      0.000 (sys:      0.000 wall:      0.000)
 LinearSystemSymbolicFactorization..:      0.303 (sys:      0.227 wall:      0.036)
 LinearSystemFactorization..........:      0.000 (sys:      0.000 wall:      0.000)
 LinearSystemBackSolve..............:     13.154 (sys:     13.377 wall:      1.714)
 LinearSystemStructureConverter.....:      0.000 (sys:      0.000 wall:      0.000)
  LinearSystemStructureConverterInit:      0.000 (sys:      0.000 wall:      0.000)
QualityFunctionSearch...............:      0.000 (sys:      0.000 wall:      0.000)
TryCorrector........................:      0.000 (sys:      0.000 wall:      0.000)
Task1...............................:      0.000 (sys:      0.000 wall:      0.000)
Task2...............................:      0.000 (sys:      0.000 wall:      0.000)
Task3...............................:      0.000 (sys:      0.000 wall:      0.000)
Task4...............................:      0.000 (sys:      0.000 wall:      0.000)
Task5...............................:      0.000 (sys:      0.000 wall:      0.000)
Task6...............................:      0.000 (sys:      0.000 wall:      0.000)
Function Evaluations................:      3.076 (sys:      3.175 wall:      0.402)
 Objective function.................:      0.014 (sys:      0.013 wall:      0.001)
 Objective function gradient........:      0.039 (sys:      0.035 wall:      0.005)
 Equality constraints...............:      0.719 (sys:      0.767 wall:      0.096)
 Inequality constraints.............:      0.014 (sys:      0.015 wall:      0.002)
 Equality constraint Jacobian.......:      0.063 (sys:      0.041 wall:      0.007)
 Inequality constraint Jacobian.....:      0.613 (sys:      0.645 wall:      0.081)
 Lagrangian Hessian.................:      1.614 (sys:      1.659 wall:      0.211)

EXIT: Optimal Solution Found.
